data;
param nombreJob := 7;
param nombreRessource := 3;
param duree := 1 6 2 1 3 6 4 6 5 10 6 4 7 2;
param capaciteRessource := 1 6 2 8 3 15;
param besoinRessource : 1 2 3 :=
                    1   1 8 6
                    2   4 6 7
                    3   4 6 8
                    4   2 2 1
                    5   1 8 5
                    6   2 5 1
                    7   2 6 6;
end;

